30	100	100	100
81	97	100
33	80	100
5	29	100
44	33	100
51	32	100
73	87	100
9	42	100
20	76	100
9	79	100
67	37	100
46	65	100
26	61	100
70	63	100
43	28	100
43	21	100
52	64	100
65	18	100
63	70	100
19	94	100
65	25	100
82	6	100
16	77	100
83	71	100
35	99	100
66	23	100
79	90	100
99	81	100
25	40	100
65	76	100
24	62	100
